15
1 0 8
2 0 8
3 1 7
4 2 2
5 1 1
5 2 2
5 3 10
5 4 3
6 1 8
6 2 3
6 5 7
7 1 11
7 3 5
7 5 10
7 6 11
8 2 2
8 7 1
9 0 8
9 3 4
9 6 8
9 7 8
10 0 1
10 3 4
10 6 9
10 7 6
11 1 9
11 3 6
11 4 2
11 7 1
11 8 6
11 9 6
12 0 1
12 2 1
12 3 6
12 4 3
12 9 10
12 10 8
13 0 10
13 2 6
13 3 9
13 4 11
13 5 9
13 6 4
13 7 4
13 10 5
13 11 3
14 4 2
14 5 9
14 6 7
14 8 3
14 10 9
14 12 4
